1273
1   1   0    0    0 0
1   2   0    97   0 91 93 98 37 87 22 41 57 0
1   3   0    97   0 92 97 67 25 55 24 94 95 0
1   4   0    79   0 16 17 8 48 61 0
1   5   0    89   0 86 38 14 44 0
1   6   0    58   0 85 100 0
2   1   0    85   0 29 34 78 79 68 0
2   2   0    78   0 13 96 59 2 73 0
2   3   0    86   0 72 74 75 23 56 0
2   4   0    68   0 39 4 54 0
2   5   0    94   0 21 12 77 81 33 3 0
2   6   0    90   0 35 65 66 71 9 80 0
3   1   0    70   0 30 63 64 49 0
3   2   0    94   0 47 36 46 45 84 5 18 0
3   3   0    88   0 32 90 10 62 31 0
3   4   0    93   0 82 83 60 99 42 43 15 6 89 27 0
3   5   0    98   0 1 76 50 51 20 11 19 7 88 0
3   6   0    94   0 52 53 58 40 26 28 69 70 0